
  17    4
  10   10   10   10

   0   0   0   0   0   5 2 3 4 5 6 
  10  10  10  10  10   4 16 11 8 7 
   5  10  10  10  10   4 16 14 11 7 
   3  10  10  10  10   4 16 14 11 7 
   8  10  10  10  10   5 16 15 14 13 9 
   9  10  10  10  10   4 16 14 13 9 
   8  10  10  10  10   3 15 13 9 
   1  10  10  10  10   2 15 14 
   7  10  10  10  10   1 10 
   6  10  10  10  10   1 12 
   9  10  10  10  10   1 13 
   9  10  10  10  10   1 17
   2  10  10  10  10   1 17
  10  10  10  10  10   1 17
   7  10  10  10  10   1 17
   9  10  10  10  10   1 17
   0   0   0   0   0   0 
